N = 5;
H = 5;
T = 2;

avail = array3d(1..N, 1..H, 1..T, [9, 0, 7, 7, 10, 2, 4, 0, 4, 5, 6, 10, 8, 3, 3, 5, 6, 3, 3, 1, 9, 4, 9, 8, 2, 6, 1, 10, 9, 3, 0, 7, 9, 4, 10, 10, 0, 7, 5, 0, 6, 0, 8, 7, 3, 0, 4, 10, 7, 3]);

r = array2d(1..H, 1..T, [1, 1, 1, 1, 1, 0, 1, 1, 2, 0]);
